Version identifier: 20.1.0.0 | 2020-11-10 | 9bedb6d68
Tried aggregator 2 times.
MIP Presolve eliminated 2366 rows and 1163 columns.
MIP Presolve modified 6326 coefficients.
Aggregator did 240 substitutions.
Reduced MIP has 3803 rows, 3012 columns, and 12482 nonzeros.
Reduced MIP has 599 binaries, 2413 generals, 0 SOSs, and 0 indicators.
Presolve time = 0.03 sec. (14.80 ticks)
Probing fixed 80 vars, tightened 700 bounds.
Probing time = 0.01 sec. (1.47 ticks)
Tried aggregator 2 times.
Detecting symmetries...
MIP Presolve eliminated 1560 rows and 92 columns.
MIP Presolve modified 285 coefficients.
Aggregator did 12 substitutions.
Reduced MIP has 2231 rows, 2908 columns, and 7292 nonzeros.
Reduced MIP has 841 binaries, 2067 generals, 0 SOSs, and 0 indicators.
Presolve time = 0.02 sec. (10.69 ticks)
Probing time = 0.00 sec. (0.55 ticks)
Clique table members: 5.
MIP emphasis: balance optimality and feasibility.
MIP search method: dynamic search.
Parallel mode: deterministic, using up to 24 threads.
Root relaxation solution time = 0.03 sec. (6.26 ticks)

        Nodes                                         Cuts/
   Node  Left     Objective  IInf  Best Integer    Best Bound    ItCnt     Gap

      0     0        0.0000    87                      0.0000      576         
*     0+    0                           15.0000        0.0000           100.00%
*     0+    0                           12.0000        0.0000           100.00%
      0     0        0.0000   121       12.0000     Cuts: 200      787  100.00%
      0     0        0.0000    91       12.0000     Cuts: 150      943  100.00%
      0     0        0.0000   198       12.0000      Cuts: 59     1011  100.00%
*     0+    0                           11.0000        0.0000           100.00%
      0     0        cutoff             11.0000       11.0000     1011    0.00%
Elapsed time = 1.12 sec. (318.91 ticks, tree = 0.01 MB, solutions = 3)

Implied bound cuts applied:  85
Flow cuts applied:  5
Mixed integer rounding cuts applied:  16
Zero-half cuts applied:  125
Lift and project cuts applied:  22
Gomory fractional cuts applied:  43

Root node processing (before b&c):
  Real time             =    1.12 sec. (319.14 ticks)
Parallel b&c, 24 threads:
  Real time             =    0.00 sec. (0.00 ticks)
  Sync time (average)   =    0.00 sec.
  Wait time (average)   =    0.00 sec.
                          ------------
Total (root+branch&cut) =    1.12 sec. (319.14 ticks)

Solution status = Optimal
Solution LB = 11
Solution UB = 11
Runtime = 1.1331 seconds
	Command being timed: "/home/min/git_repos/CS598MEBProject/CNT-ILP/build/cnt -s 2 ./output/k8_n40/simC_c1_k8_n40_u2_s1_del04.input-left.cnp"
	User time (seconds): 12.64
	System time (seconds): 0.15
	Percent of CPU this job got: 1076%
	Elapsed (wall clock) time (h:mm:ss or m:ss): 0:01.19
	Average shared text size (kbytes): 0
	Average unshared data size (kbytes): 0
	Average stack size (kbytes): 0
	Average total size (kbytes): 0
	Maximum resident set size (kbytes): 147028
	Average resident set size (kbytes): 0
	Major (requiring I/O) page faults: 0
	Minor (reclaiming a frame) page faults: 35734
	Voluntary context switches: 6384
	Involuntary context switches: 1607
	Swaps: 0
	File system inputs: 0
	File system outputs: 16
	Socket messages sent: 0
	Socket messages received: 0
	Signals delivered: 0
	Page size (bytes): 4096
	Exit status: 0
